Route #1: 27 28 40 58 13 53
Route #2: 6 94 95 73 21 26 12
Route #3: 89 92 97 87 72 80
Route #4: 68 54 74 2 42 37 59
Route #5: 77 29 55 75 22 57 100 98 99
Route #6: 76 3 24 25 56 41 15 93 96
Route #7: 5 39 79 50
Route #8: 4 23 43 85 84 60
Route #9: 1 33 78 67 91 61 17 83 18
Route #10: 16 8 52 69 9 34 81
Route #11: 44 86 45 46 82 71 51
Route #12: 14 38 48 7 65 35
Route #13: 31 88 62 36 47
Route #14: 70 10 90 64 49 19 11
Route #15: 30 20 66 32 63
Cost 1852
